Ir O  H 
 1.0000000000000000
    12.7068258748017620   -0.0000000000000000    0.0000000000000000
     0.0000000000000000   12.7429528728060273    0.0000000000000000
     0.0000000000000000    0.0000000000000000   28.3695020463338352
 Ir  O   H  
  64 200 144
Cartesian
  1.5919549999999973  1.6164540000000005  9.3948220000000031
  1.5919549999999973  7.9879300000000004  9.3948220000000031
  4.7686610000000043  1.6164540000000005  9.3948220000000031
  4.7686610000000043  7.9879300000000004  9.3948220000000031
  7.9453680000000011  1.6164540000000005  9.3948220000000031
  7.9453680000000011  7.9879300000000004  9.3948220000000031
 11.1220739999999942  1.6164540000000005  9.3948220000000031
 11.1220739999999942  7.9879300000000004  9.3948220000000031
  0.0039309999999983  4.8050419999999976  9.5094839999999898
  0.0039309999999983 11.1765179999999980  9.5094839999999898
  3.1806379999999961  4.8050419999999976  9.5094839999999898
  3.1806379999999961 11.1765179999999980  9.5094839999999898
  6.3573440000000021  4.8050419999999976  9.5094839999999898
  6.3573440000000021 11.1765179999999980  9.5094839999999898
  9.5340509999999998  4.8050419999999976  9.5094839999999898
  9.5340509999999998 11.1765179999999980  9.5094839999999898
  1.5913140000000019  4.7970109999999941 12.6177109999999910
  1.5913140000000019 11.1684879999999964 12.6177109999999910
  4.7680199999999955  4.7970109999999941 12.6177109999999910
  4.7680199999999955 11.1684879999999964 12.6177109999999910
  7.9447270000000065  4.7970109999999941 12.6177109999999910
  7.9447270000000065 11.1684879999999964 12.6177109999999910
 11.1214329999999997  4.7970109999999941 12.6177109999999910
 11.1214329999999997 11.1684879999999964 12.6177109999999910
  0.0033170000000021  1.6126880000000039 12.5744960000000088
  0.0033170000000021  7.9841640000000043 12.5744960000000088
  3.1800229999999958  1.6126880000000039 12.5744960000000088
  3.1800229999999958  7.9841640000000043 12.5744960000000088
  6.3567300000000060  1.6126880000000039 12.5744960000000088
  6.3567300000000060  7.9841640000000043 12.5744960000000088
  9.5334360000000000  1.6126880000000039 12.5744960000000088
  9.5334360000000000  7.9841640000000043 12.5744960000000088
  1.5915820000000003  1.6114170000000050 15.7556719999999988
  1.5915820000000003  7.9828930000000042 15.7556719999999988
  4.7682889999999984  1.6114170000000050 15.7556719999999988
  4.7682889999999984  7.9828930000000042 15.7556719999999988
  7.9449950000000049  1.6114170000000050 15.7556719999999988
  7.9449950000000049  7.9828930000000042 15.7556719999999988
 11.1217009999999981  1.6114170000000050 15.7556719999999988
 11.1217009999999981  7.9828930000000042 15.7556719999999988
  0.0035669999999967  4.7981419999999941 15.7993349999999886
  0.0035669999999967 11.1696189999999973 15.7993349999999886
  3.1802739999999945  4.7981419999999941 15.7993349999999886
  3.1802739999999945 11.1696189999999973 15.7993349999999886
  6.3569800000000010  4.7981419999999941 15.7993349999999886
  6.3569800000000010 11.1696189999999973 15.7993349999999886
  9.5336869999999987  4.7981419999999941 15.7993349999999886
  9.5336869999999987 11.1696189999999973 15.7993349999999886
  1.5926009999999988  4.8054690000000022 18.9749200000000080
  1.5926009999999988 11.1769450000000035 18.9749200000000080
  4.7693070000000057  4.8054690000000022 18.9749200000000080
  4.7693070000000057 11.1769450000000035 18.9749200000000080
  7.9460129999999989  4.8054690000000022 18.9749200000000080
  7.9460129999999989 11.1769450000000035 18.9749200000000080
 11.1227199999999957  4.8054690000000022 18.9749200000000080
 11.1227199999999957 11.1769450000000035 18.9749200000000080
  0.0041800000000018  1.6219729999999979 18.8577350000000052
  0.0041800000000018  7.9934489999999983 18.8577350000000052
  3.1808869999999989  1.6219729999999979 18.8577350000000052
  3.1808869999999989  7.9934489999999983 18.8577350000000052
  6.3575930000000058  1.6219729999999979 18.8577350000000052
  6.3575930000000058  7.9934489999999983 18.8577350000000052
  9.5343000000000035  1.6219729999999979 18.8577350000000052
  9.5343000000000035  7.9934489999999983 18.8577350000000052
 10.5987749999999945  4.6976510000000040 22.9028239999999954
  3.9251549999999948  7.9179029999999955 23.2839920000000120
  2.8177910000000055  4.8140669999999970 25.4063040000000129
 11.1601510000000044 12.2370989999999988 23.4292690000000086
  5.5884670000000032  9.0948540000000033 24.0800540000000005
  9.0439550000000040  9.8305219999999967 22.8819730000000092
  4.6813400000000041  6.8740049999999995 27.5580410000000064
  1.4624660000000016 11.5396799999999988 24.9467269999999992
  6.5218480000000065  2.9391220000000011 27.5850550000000041
  7.5494290000000017  4.7740740000000015 22.8145739999999932
 10.5578420000000026  8.5798089999999938 25.2034370000000116
 10.3959299999999963  2.5240720000000056 21.7067760000000085
  5.1155559999999998  8.6403989999999986 21.1300659999999922
  5.7691950000000025  2.2205080000000055 21.4751159999999963
  1.5745909999999963  0.9483560000000045 26.1623850000000147
  4.2991949999999983  7.8633940000000049 25.3698259999999962
  7.5285439999999975  6.4074340000000030 27.4874159999999925
 11.6484870000000011  2.5522260000000005 26.3192369999999904
  4.1315049999999989  2.6507770000000024 27.5879349999999981
 12.0087459999999968  6.6224239999999970 23.7174800000000019
  7.9303739999999934  0.9714749999999963 21.4979789999999902
  8.4799960000000034 12.0419429999999981 24.5904859999999879
 10.1409960000000066  6.7355450000000019 20.9633159999999883
 11.6034720000000071  1.2098269999999940 23.5733159999999948
  1.0423219999999973  7.0851499999999961 26.2731990000000124
  8.0353410000000061  7.9402309999999972 22.3632609999999907
  9.7322379999999988  3.6378560000000055 26.2726739999999985
 11.2646140000000017 11.1073980000000052 27.1123649999999969
  4.6143080000000047  1.6272079999999987 24.2871360000000145
  6.1397440000000012  3.3651430000000002 25.4388980000000089
  6.1884159999999984  0.4266670000000015 26.4287830000000099
  7.4698409999999997  9.7851899999999965 27.3354730000000004
  6.3264290000000010  6.1008940000000065 25.1783430000000124
  0.5014750000000057  2.4894090000000029 21.8949240000000032
  3.7463499999999952  5.2860780000000034 22.6914579999999937
 10.3814039999999981  6.3249279999999990 26.8326659999999926
  8.3709010000000053  6.9196119999999954  2.1603649999999939
  5.3078229999999973  1.2625000000000000  1.9328709999999980
  3.7861120000000037  2.5451740000000034  5.2070230000000075
  8.6755989999999965 10.1642369999999946  3.3737380000000128
  0.9573640000000034 10.1485699999999941  4.0657930000000126
  6.7051389999999973  9.8594800000000031  1.0804160000000143
 10.9337710000000055  5.0280200000000042  1.0557559999999910
  5.6815089999999975  6.9433239999999969  1.3358009999999974
  3.9236590000000042  9.1802539999999961  3.3610630000000081
  3.0907220000000009  2.1711069999999997  2.2084179999999880
  3.0850829999999938  7.8243159999999952  1.4581489999999995
  1.3533370000000033  2.9025210000000032  1.0742010000000022
  0.4996020000000031  1.2391770000000002  4.7544230000000010
 11.3896770000000025  0.7125149999999972  1.4878410000000004
  2.5070399999999955 10.7243580000000058  0.9914460000000012
  5.8005949999999995  1.1643720000000044  4.6522760000000121
  8.1087270000000053 12.2733950000000060  2.0547439999999959
  1.5652539999999986  2.8662159999999965  3.7279539999999924
  5.5625889999999947  5.4755510000000047  3.6021750000000008
  0.6479149999999959  5.5341559999999994  1.8463920000000131
  0.4656460000000030  8.5134320000000017  1.4552509999999896
 11.4319980000000001 10.8035269999999972  3.8571950000000110
  3.3966819999999980 11.6836319999999958  4.8511469999999965
  9.5322850000000034  3.8439369999999973  6.0649239999999951
  9.9693409999999947  8.4773579999999988  3.9286720000000139
  4.4844400000000020 11.8683569999999996  2.0136669999999968
  7.3298369999999977  3.4694129999999967  1.0134689999999902
  4.8797650000000052  8.2234219999999993  5.3655200000000010
  8.4648350000000061  1.2734739999999987  1.8033509999999884
  5.6924289999999935  3.9440120000000003  5.5216980000000140
  3.0816090000000020  5.1661649999999959  2.8546909999999883
 10.9067479999999968  1.8889130000000012  3.2849129999999955
  4.4053649999999998  4.0959780000000050  0.9826570000000103
  8.8254979999999996  5.0310839999999981  3.5682120000000053
  1.4739189999999958  3.2284389999999989  7.1204240000000052
 10.3741650000000050 11.3808700000000034  1.0000049999999967
  3.1800979999999970  1.5930470000000010  8.2230520000000062
  3.1800979999999970  7.9645230000000016  8.2230520000000062
  6.3568049999999952  1.5930470000000010  8.2230520000000062
  6.3568049999999952  7.9645230000000016  8.2230520000000062
  9.5335110000000007  1.5930470000000010  8.2230520000000062
  9.5335110000000007  7.9645230000000016  8.2230520000000062
  0.0033920000000031  1.5930470000000010  8.2230520000000062
  0.0033920000000031  7.9645230000000016  8.2230520000000062
  1.5921120000000000  6.0209020000000013  9.4384840000000114
  1.5921120000000000 12.3923780000000008  9.4384840000000114
  4.7688189999999979  6.0209020000000013  9.4384840000000114
  4.7688189999999979 12.3923780000000008  9.4384840000000114
  7.9455250000000044  6.0209020000000013  9.4384840000000114
  7.9455250000000044 12.3923780000000008  9.4384840000000114
 11.1222309999999975  6.0209020000000013  9.4384840000000114
 11.1222309999999975 12.3923780000000008  9.4384840000000114
  3.1798920000000019  1.6055209999999991 10.6276039999999892
  3.1798920000000019  7.9769969999999981 10.6276039999999892
  6.3565979999999955  1.6055209999999991 10.6276039999999892
  6.3565979999999955  7.9769969999999981 10.6276039999999892
  9.5333050000000057  1.6055209999999991 10.6276039999999892
  9.5333050000000057  7.9769969999999981 10.6276039999999892
  0.0031850000000041  1.6055209999999991 10.6276039999999892
  0.0031850000000041  7.9769969999999981 10.6276039999999892
  1.5918329999999987  3.5921820000000046  9.3737990000000018
  1.5918329999999987  9.9636589999999945  9.3737990000000018
  4.7685390000000050  3.5921820000000046  9.3737990000000018
  4.7685390000000050  9.9636589999999945  9.3737990000000018
  7.9452460000000018  3.5921820000000046  9.3737990000000018
  7.9452460000000018  9.9636589999999945  9.3737990000000018
 11.1219519999999967  3.5921820000000046  9.3737990000000018
 11.1219519999999967  9.9636589999999945  9.3737990000000018
  3.1792630000000006  4.7793629999999965 11.4152999999999913
  3.1792630000000006 11.1508389999999959 11.4152999999999913
  6.3559699999999975  4.7793629999999965 11.4152999999999913
  6.3559699999999975 11.1508389999999959 11.4152999999999913
  9.5326760000000039  4.7793629999999965 11.4152999999999913
  9.5326760000000039 11.1508389999999959 11.4152999999999913
  0.0025569999999937  4.7793629999999965 11.4152999999999913
  0.0025569999999937 11.1508389999999959 11.4152999999999913
  1.5915229999999958  2.8306580000000001 12.5861399999999897
  1.5915229999999958  9.2021350000000020 12.5861399999999897
  4.7682300000000062  2.8306580000000001 12.5861399999999897
  4.7682300000000062  9.2021350000000020 12.5861399999999897
  7.9449359999999993  2.8306580000000001 12.5861399999999897
  7.9449359999999993  9.2021350000000020 12.5861399999999897
 11.1216429999999971  2.8306580000000001 12.5861399999999897
 11.1216429999999971  9.2021350000000020 12.5861399999999897
  3.1794580000000052  4.7853990000000017 13.8365589999999994
  3.1794580000000052 11.1568750000000012 13.8365589999999994
  6.3561639999999988  4.7853990000000017 13.8365589999999994
  6.3561639999999988 11.1568750000000012 13.8365589999999994
  9.5328709999999965  4.7853990000000017 13.8365589999999994
  9.5328709999999965 11.1568750000000012 13.8365589999999994
  0.0027519999999986  4.7853990000000017 13.8365589999999994
  0.0027519999999986 11.1568750000000012 13.8365589999999994
  1.5911929999999941  0.3981159999999948 12.5851119999999987
  1.5911929999999941  6.7695929999999969 12.5851119999999987
  4.7678990000000008  0.3981159999999948 12.5851119999999987
  4.7678990000000008  6.7695929999999969 12.5851119999999987
  7.9446059999999976  0.3981159999999948 12.5851119999999987
  7.9446059999999976  6.7695929999999969 12.5851119999999987
 11.1213120000000050  0.3981159999999948 12.5851119999999987
 11.1213120000000050  6.7695929999999969 12.5851119999999987
  3.1796450000000060  1.5991909999999951 14.5392730000000068
  3.1796450000000060  7.9706679999999972 14.5392730000000068
  6.3563520000000029  1.5991909999999951 14.5392730000000068
  6.3563520000000029  7.9706679999999972 14.5392730000000068
  9.5330579999999969  1.5991909999999951 14.5392730000000068
  9.5330579999999969  7.9706679999999972 14.5392730000000068
  0.0029389999999991  1.5991909999999951 14.5392730000000068
  0.0029389999999991  7.9706679999999972 14.5392730000000068
  1.5917679999999970  6.0157290000000039 15.7898440000000022
  1.5917679999999970 12.3872050000000034 15.7898440000000022
  4.7684740000000030  6.0157290000000039 15.7898440000000022
  4.7684740000000030 12.3872050000000034 15.7898440000000022
  7.9451810000000007  6.0157290000000039 15.7898440000000022
  7.9451810000000007 12.3872050000000034 15.7898440000000022
 11.1218869999999956  6.0157290000000039 15.7898440000000022
 11.1218869999999956 12.3872050000000034 15.7898440000000022
  3.1797269999999949  1.5959429999999959 16.9565780000000110
  3.1797269999999949  7.9674199999999988 16.9565780000000110
  6.3564340000000046  1.5959429999999959 16.9565780000000110
  6.3564340000000046  7.9674199999999988 16.9565780000000110
  9.5331399999999977  1.5959429999999959 16.9565780000000110
  9.5331399999999977  7.9674199999999988 16.9565780000000110
  0.0030210000000007  1.5959429999999959 16.9565780000000110
  0.0030210000000007  7.9674199999999988 16.9565780000000110
  1.5914510000000059  3.5835060000000016 15.7933200000000014
  1.5914510000000059  9.9549830000000039 15.7933200000000014
  4.7681580000000032  3.5835060000000016 15.7933200000000014
  4.7681580000000032  9.9549830000000039 15.7933200000000014
  7.9448639999999981  3.5835060000000016 15.7933200000000014
  7.9448639999999981  9.9549830000000039 15.7933200000000014
 11.1215709999999959  3.5835060000000016 15.7933200000000014
 11.1215709999999959  9.9549830000000039 15.7933200000000014
  3.1804300000000061  4.7893599999999950 17.7444440000000121
  3.1804300000000061 11.1608369999999972 17.7444440000000121
  6.3571359999999997  4.7893599999999950 17.7444440000000121
  6.3571359999999997 11.1608369999999972 17.7444440000000121
  9.5338420000000053  4.7893599999999950 17.7444440000000121
  9.5338420000000053 11.1608369999999972 17.7444440000000121
  0.0037229999999956  4.7893599999999950 17.7444440000000121
  0.0037229999999956 11.1608369999999972 17.7444440000000121
  1.5924039999999993  2.8374040000000043 18.9442290000000035
  1.5924039999999993  9.2088809999999945 18.9442290000000035
  4.7691100000000057  2.8374040000000043 18.9442290000000035
  4.7691100000000057  9.2088809999999945 18.9442290000000035
  7.9458170000000035  2.8374040000000043 18.9442290000000035
  7.9458170000000035  9.2088809999999945 18.9442290000000035
 11.1225229999999957  2.8374040000000043 18.9442290000000035
 11.1225229999999957  9.2088809999999945 18.9442290000000035
  3.1811169999999955  4.7843919999999960 20.1464479999999995
  3.1811169999999955 11.1558689999999991 20.1464479999999995
  6.3578230000000016  4.7843919999999960 20.1464479999999995
  6.3578230000000016 11.1558689999999991 20.1464479999999995
  9.5345299999999984  4.7843919999999960 20.1464479999999995
  9.5345299999999984 11.1558689999999991 20.1464479999999995
  0.0044099999999979  4.7843919999999960 20.1464479999999995
  0.0044099999999979 11.1558689999999991 20.1464479999999995
  1.5921740000000031  0.4060550000000019 18.9459209999999949
  1.5921740000000031  6.7775320000000052 18.9459209999999949
  4.7688799999999967  0.4060550000000019 18.9459209999999949
  4.7688799999999967  6.7775320000000052 18.9459209999999949
  7.9455860000000031  0.4060550000000019 18.9459209999999949
  7.9455860000000031  6.7775320000000052 18.9459209999999949
 11.1222930000000009  0.4060550000000019 18.9459209999999949
 11.1222930000000009  6.7775320000000052 18.9459209999999949
  9.9058310000000027  5.4073699999999985 23.0302749999999996
 10.3742809999999945  3.9066220000000040 23.4720289999999956
  3.1908079999999952  7.6817479999999989 22.6475320000000089
  4.6600089999999978  7.2436410000000020 23.2099800000000052
  3.8067520000000057  4.8595859999999949 25.5477230000000013
  2.5148619999999950  3.8633909999999996 25.4738900000000079
 11.5613830000000011 11.4860610000000012 23.9537409999999902
 10.4434309999999986 11.8797359999999941 22.8303360000000062
  5.5247140000000030  9.6621500000000022 24.9011670000000009
  5.3177170000000062  9.6326499999999946 23.2815629999999985
  8.7532769999999989 10.2314779999999992 22.0131480000000010
  9.9275569999999984  9.3780110000000025 22.7611429999999899
  3.9749030000000012  6.1679740000000054 27.5072090000000138
  4.2510330000000014  7.7767509999999991 27.5564539999999916
  2.4538290000000007 11.6223009999999967 25.0491400000000191
  1.2153299999999974 10.5742269999999952 24.8634130000000049
  6.3135410000000034  3.9170160000000016 27.5639040000000115
  7.5133530000000031  2.8098880000000035 27.6033309999999972
  7.9523270000000013  5.1260880000000020 21.9696619999999960
  8.1594210000000054  4.0902040000000000 23.2150099999999924
 11.1489009999999951  9.1081460000000014 24.5938260000000000
  9.6031999999999993  8.7049250000000029 24.9330270000000063
 10.0815140000000039  1.5906970000000038 21.8801810000000039
  9.6061119999999995  3.1208199999999962 21.5646620000000091
  4.2893970000000046  9.1357550000000014 21.3987650000000045
  4.9094190000000051  7.6647379999999936 21.0545019999999958
  5.2388420000000027  3.0641700000000038 21.5592360000000127
  5.1468350000000020  1.4395090000000048 21.4219509999999893
  2.4583029999999968  0.5470749999999951 25.9212550000000093
  1.6609720000000001  1.9437799999999998 26.2046529999999898
  3.7289180000000064  8.6848989999999961 25.3752789999999884
  3.7263380000000033  7.0589590000000015 25.5274209999999968
  7.8545259999999999  5.4685829999999935 27.5988220000000091
  8.2923840000000055  6.9962810000000015 27.2229819999999982
 12.2056340000000052  1.7323609999999943 26.4516199999999913
 12.2108630000000034  3.2764759999999939 25.9200959999999938
  3.6762580000000007  3.4963249999999952 27.3088009999999919
  3.6333649999999991  1.8663559999999999 27.2182629999999932
 12.2041529999999945  6.2394909999999948 22.8145430000000147
 11.1359749999999948  7.1099539999999957 23.6909719999999915
  7.1182139999999965  0.4986890000000045 21.1559470000000154
  7.9271320000000056  1.9172100000000036 21.1728760000000129
  8.0866779999999956 11.1366050000000048 24.7510480000000044
  9.3268190000000022 12.1350879999999943 25.1142549999999893
 10.5335219999999996  7.4822309999999987 21.5004379999999991
  9.1833060000000035  6.9391499999999970 20.7596170000000093
 12.0595829999999964  2.0424530000000032 23.2589700000000157
 12.0289839999999959  0.8970540000000027 24.4225690000000029
  1.5611160000000013  7.7454249999999956 25.7300549999999966
  0.5003080000000001  7.5705909999999959 26.9592650000000127
  7.3423840000000036  7.4260010000000047 21.8577969999999979
  8.0917060000000038  7.5924450000000041 23.2992019999999904
  9.6921859999999995  3.1540740000000054 27.1470120000000001
  9.2141290000000033  3.1281710000000054 25.5857220000000041
 12.1809160000000016 10.7068449999999942 27.1043209999999917
 11.3366720000000036 12.1046980000000062 27.0945079999999976
  4.8445809999999998  2.2694889999999996 23.5559960000000146
  3.7591120000000049  1.9097070000000003 24.7218210000000127
  5.2058720000000047  3.1845480000000053 25.7477420000000023
  6.5043550000000048  2.5512980000000063 24.9863130000000133
  5.4208850000000011  1.0443139999999966 26.2569550000000085
  6.7408859999999970  0.7831989999999968 27.1822949999999999
  8.4364939999999979  9.8143950000000029 27.0808259999999876
  7.1126889999999960  8.8636259999999965 27.1828930000000000
  5.7679450000000045  5.8367799999999983 25.9647630000000120
  6.9726959999999973  5.3675030000000037 24.9671699999999923
  0.5817280000000041  3.4722779999999962 22.0611920000000126
  0.6901770000000010  2.2978359999999984 20.9316959999999952
  4.2959640000000006  5.5425529999999936 21.8963089999999987
  4.3503190000000034  5.0764669999999956 23.4604849999999949
  9.8343110000000031  5.8357039999999953 26.1533530000000098
 11.2823960000000039  5.8971560000000061 26.9057559999999967
  8.6613930000000021  7.4093909999999958  1.3382660000000122
  7.6820110000000010  7.4595910000000005  2.6440710000000140
  5.4654770000000026  0.8564930000000015  1.0326379999999984
  4.6880740000000021  0.6789540000000044  2.4577550000000121
  3.3205550000000024  3.3869739999999973  5.4804200000000067
  3.1080380000000001  1.8638010000000045  4.9312220000000009
  8.0223200000000077  9.4303939999999962  3.5603319999999958
  8.8363469999999964 10.2248169999999963  2.3885429999999985
  0.6136210000000025 10.9091140000000042  4.6167290000000047
  1.5284099999999996  9.5564570000000000  4.6344989999999857
  7.4737260000000036  9.2268270000000019  0.9848059999999913
  6.6676659999999961 10.1987250000000049  2.0204300000000019
 11.7857769999999960  5.2063300000000012  1.5481040000000139
 10.7808319999999949  4.0412519999999956  1.0008240000000119
  6.5397470000000011  6.5600710000000024  0.9942439999999984
  5.8151150000000014  7.9074199999999975  1.5655559999999975
  3.3964089999999936  8.4011259999999996  3.7003029999999910
  4.8865249999999980  8.9219410000000021  3.2818010000000140
  3.4121070000000038  2.1539469999999947  1.2615630000000115
  3.7601340000000012  2.6469459999999945  2.7790169999999903
  3.7448319999999984  8.4803909999999991  1.0915230000000034
  3.5720020000000035  7.0969410000000064  1.9418359999999930
  1.1850250000000031  1.9188970000000032  1.1395610000000127
  0.4814959999999971  3.3848500000000041  0.9883520000000071
  0.6624330000000028  0.6991789999999939  3.9285869999999856
  1.1628770000000033  0.9816580000000048  5.4571810000000109
 12.1832170000000044  1.1370789999999995  1.0517729999999956
 10.5573949999999961  0.9900769999999954  1.0078580000000108
  2.7743570000000015 10.3140559999999954  1.8634030000000041
  1.9471319999999974 11.5351610000000022  1.1623789999999956
  5.5472460000000030  1.9219929999999954  4.0506609999999910
  4.9735529999999946  0.7026849999999953  4.9731580000000033
  7.6001969999999970 12.0276689999999995  1.2294370000000046
  7.5782790000000055 12.0152970000000003  2.8622879999999937
  1.6196249999999983  3.7848370000000031  4.1194849999999921
  0.7317990000000018  2.7857769999999960  3.1811459999999920
  6.1178809999999997  5.3444240000000063  2.7808510000000046
  4.9122290000000035  6.2197479999999938  3.4494670000000123
  0.4856430000000026  4.8887740000000051  2.5928939999999989
  0.7009390000000033  6.4626319999999993  2.2141409999999908
  0.4999460000000061  8.7582460000000051  2.4242740000000076
  1.2442459999999944  8.9235100000000003  0.9801339999999915
 11.3005960000000041 11.7557540000000031  3.5813079999999946
 12.0671839999999939 10.3582809999999945  3.2259970000000102
  4.2404990000000007 12.0563770000000012  4.4649480000000130
  2.8781800000000057 11.2192479999999986  4.1330800000000067
  9.8734369999999974  4.6251469999999992  5.5420079999999903
  9.4327610000000011  3.0548979999999943  5.4585990000000075
  9.3318830000000048  7.8862440000000014  4.4229849999999864
  9.8455259999999978  8.3515719999999991  2.9443109999999999
  3.6374039999999948 12.2707319999999953  2.3611450000000032
  4.7209190000000030 11.0653410000000036  2.5608050000000055
  7.1347310000000066  4.4496489999999982  1.0479159999999978
  8.3196090000000069  3.3267950000000051  1.0021109999999871
  4.5792200000000021  7.2696529999999937  5.3548469999999888
  5.8791030000000042  8.2577939999999987  5.3815830000000044
  8.6794629999999984  0.6975259999999982  2.5922330000000007
  7.4746759999999988  1.4000429999999942  1.7426470000000105
  6.1474759999999939  4.3605169999999998  6.3088269999999982
  6.3556620000000024  3.8112899999999983  4.7850670000000015
  2.3993030000000060  5.6825209999999986  3.3723330000000087
  2.6234749999999956  4.6125710000000044  2.1591590000000052
 10.1792779999999947  2.2990079999999953  2.7347079999999884
 10.6453719999999965  0.9587519999999948  3.5429810000000064
  5.1521109999999979  3.5214870000000009  1.3179860000000045
  4.5718290000000010  5.0462589999999947  1.2460430000000060
  9.6468159999999976  5.4421260000000000  3.1724879999999942
  8.3607540000000036  4.4808690000000055  2.8743869999999996
  0.4957239999999997  3.4363209999999960  7.1264449999999968
  1.9959930000000030  4.0809209999999991  7.1492229999999912
 10.9922800000000027 10.6603420000000000  1.3144750000000105
 10.4702169999999981 12.1830750000000041  1.5893759999999870
Ir O  H 
 1.0000000000000000
    12.7068258748017620   -0.0000000000000000    0.0000000000000000
     0.0000000000000000   12.7429528728060273    0.0000000000000000
     0.0000000000000000    0.0000000000000000   28.3695020463338352
 Ir  O   H  
  64 200 144
Cartesian
  1.5920733902319539  1.6172062882416405  9.3939115069373020
  1.5918091182852157  7.9877012232466686  9.3944528759501189
  4.7680459720649662  1.6164739938964432  9.3938481708822099
  4.7691667889889979  7.9883120186628727  9.3943616596942956
  7.9461168932007373  1.6175110215688455  9.3922110721334491
  7.9450785760220013  7.9875536963793357  9.3943072140697890
 11.1218157525206003  1.6147942160447486  9.3939732467962749
 11.1223716503278087  7.9871387668213343  9.3942404636100516
  0.0030991335315318  4.8061888734175051  9.5069704319018626
  0.0032255084043435 11.1766520820212953  9.5064471138905677
  3.1801438210117472  4.8047094078544150  9.5071395432016494
  3.1807044312760473 11.1771722975686565  9.5061876159567067
  6.3567938449545549  4.8055873835741938  9.5058115100182015
  6.3574283062817960 11.1766326747665161  9.5066206435738430
  9.5338059635908881  4.8052503449543131  9.5064988777618282
  9.5335890944991419 11.1772932787286976  9.5063549301284525
  1.5907073893095114  4.7963373712514752 12.6181541338361054
  1.5912118898225283 11.1681367461453434 12.6174114141126346
  4.7688831124574156  4.7962238615899970 12.6185995053978264
  4.7687545155282383 11.1688576396624129 12.6192047832963361
  7.9441288814405260  4.7970167519125049 12.6181629191931783
  7.9447633339297132 11.1690763104073163 12.6174012616907518
 11.1220369424186316  4.7966245068753262 12.6181590821736176
 11.1210497013135132 11.1686596871435935 12.6191543625443234
  0.0028668099971802  1.6125703126826505 12.5759933205884398
  0.0042923811601828  7.9842382971060522 12.5757744269311296
  3.1791671925079372  1.6134786254455598 12.5747474652574613
  3.1807001247439763  7.9843446281022610 12.5754161661457502
  6.3560054278470055  1.6128259184771023 12.5749658705567651
  6.3569782362612921  7.9843765451967927 12.5751239381981463
  9.5343521628517838  1.6117389757048373 12.5742376283782065
  9.5335879417505396  7.9832150882279747 12.5756186225463367
  1.5908947685448780  1.6115911342044236 15.7545444616791741
  1.5903266360359762  7.9818628003425731 15.7557985639734994
  4.7678545622226052  1.6117148049939247 15.7555332453741581
  4.7685701684979716  7.9837044819048781 15.7545949280135034
  7.9458790826434864  1.6112594710879371 15.7548583278039214
  7.9469992133595433  7.9824650114513291 15.7545435365066133
 11.1220176820373400  1.6121594232352769 15.7548709634890969
 11.1213435174376158  7.9829287718284228 15.7551968294914300
  0.0042957718532413  4.7976815356820746 15.7988644085841496
  0.0035946419479129 11.1695464339298400 15.7978184248583009
  3.1817878719039547  4.7981363940828405 15.7975575417892014
  3.1805948770720383 11.1694620422741693 15.7976230678148930
  6.3571780893164131  4.7974203588223405 15.7990855851129250
  6.3553107720797000 11.1692368269902573 15.7983402610903969
  9.5345860797054502  4.7971135289637390 15.7989190695884574
  9.5333033419199538 11.1702934921980361 15.7975326828792682
  1.5917469605249390  4.8062753696627079 18.9759507593058245
  1.5926059918346420 11.1766420296868940 18.9748041680478181
  4.7697389187764685  4.8050668728176973 18.9742477108190180
  4.7694564387191036 11.1763144477299257 18.9743182758478000
  7.9459618727148653  4.8056431339529659 18.9749399827535008
  7.9466008840831996 11.1769789106070050 18.9742541739029349
 11.1235736345027618  4.8036461307250988 18.9758845119460702
 11.1234771193717208 11.1761918795089201 18.9751319646032819
  0.0035926464514831  1.6224546694738655 18.8618541598065654
  0.0048443487052971  7.9921368463455842 18.8607381539016927
  3.1817788486655263  1.6225107968157844 18.8602108178037504
  3.1809186078533807  7.9944520086619688 18.8613054893194310
  6.3551937589596728  1.6222191614230348 18.8613812963149456
  6.3569045623375189  7.9958571141226216 18.8608229321300804
  9.5344836396936508  1.6223074736040752 18.8622055494637912
  9.5353379907158207  7.9924746135102875 18.8612675650729962
 10.5948294903274061  4.6977859985615797 22.9089841583691296
  3.8500486631948805  7.9274341008378615 23.2214188301832145
  2.8242298998469599  4.8177778999206771 25.4177327180031121
 11.1285284142125818 12.1010255247301100 23.4202165309091264
  5.6505768550417690  9.1469440118888503 24.0771000012857570
  9.0746717587370203  9.8734462551005819 22.9006684908609834
  4.6760881684831030  6.8373969496215832 27.5522965406807820
  1.4571287856523958 11.5217030766368342 24.9422614704603589
  6.5083778213529619  2.8935897754393540 27.5518188589481205
  7.5452878148677920  4.7768398665682739 22.8274541585722659